NAME: ba6
TYPE: ATSP
COMMENT: Buenos Aires Cities (Symmetric)
DIMENSION: 8
EDGE_WEIGHT_TYPE: EXPLICIT
EDGE_WEIGHT_FORMAT: FULL_MATRIX
EDGE_WEIGHT_SECTION
9999 260 110 270 300 160 260 230
260 9999 310 420 570 175 470 305
110 310 9999 160 310 150 345 140
270 420 160 9999 385 240 480 120
300 570 310 385 9999 450 230 440
160 175 150 240 450 9999 425 130
260 470 345 480 230 425 9999 480
230 305 140 120 440 130 480 9999
EOF